72 67170
12 31 70 18 67 23 7 60 64 53 47 14 30 65 16 61 71 27 35 21 22 17 46 6 1 38 29 10 26 28 39 33 49 59 57 44 2 52 32 13 36 68 55 20 41 8 42 51 37 48 9 4 40 62 34 24 43 63 50 19 66 58 11 56 3 54 72 69 15 25 45 5 
